Solver command line: ['C:\\Program Files\\IBM\\ILOG\\CPLEX_Studio221\\cplex\\bin\\x64_win64\\cplex.exe']


Welcome to IBM(R) ILOG(R) CPLEX(R) Interactive Optimizer 22.1.0.0
  with Simplex, Mixed Integer & Barrier Optimizers
5725-A06 5725-A29 5724-Y48 5724-Y49 5724-Y54 5724-Y55 5655-Y21
Copyright IBM Corp. 1988, 2022.  All Rights Reserved.

Type 'help' for a list of available commands.
Type 'help' followed by a command name for more
information on commands.

CPLEX> Logfile 'cplex.log' closed.
Logfile 'data\30_bus\3_trips_per_bus\global_sans_obj\2_5_1\step_global.log' open.
CPLEX> New value for mixed integer solutions limit: 1
CPLEX> New value for time limit in seconds: 6
CPLEX> New value for default parallel thread count: 1
CPLEX> Problem 'C:\Users\Mathis\AppData\Local\Temp\tmpo0g8sdir.pyomo.lp' read.
Read time = 0.20 sec. (8.89 ticks)
CPLEX> Problem name         : C:\Users\Mathis\AppData\Local\Temp\tmpo0g8sdir.pyomo.lp
Objective sense      : Minimize
Variables            :   52477  [Nneg: 9641,  Binary: 42836]
Objective nonzeros   :       0
Linear constraints   :   65371  [Less: 62670,  Greater: 630,  Equal: 2071]
  Nonzeros           :  315163
  RHS nonzeros       :   56056

Variables            : Min LB: 0.000000         Max UB: 1.000000       
Objective nonzeros   : Min   : all zero         Max   : all zero       
Linear constraints   :
  Nonzeros           : Min   : 0.2192982        Max   : 10000.00       
  RHS nonzeros       : Min   : 1.000000         Max   : 10000.00       
CPLEX> Version identifier: 22.1.0.0 | 2022-03-09 | 1a383f8ce
CPXPARAM_Threads                                 1
CPXPARAM_MIP_Limits_Solutions                    1
CPXPARAM_TimeLimit                               6
Tried aggregator 3 times.
MIP Presolve eliminated 17512 rows and 7540 columns.
MIP Presolve modified 139328 coefficients.
Aggregator did 205 substitutions.
Reduced MIP has 47654 rows, 44732 columns, and 233994 nonzeros.
Reduced MIP has 35466 binaries, 0 generals, 0 SOSs, and 0 indicators.
Presolve time = 0.66 sec. (407.02 ticks)
Probing fixed 309 vars, tightened 601 bounds.
Probing time = 2.39 sec. (730.31 ticks)
Cover probing fixed 0 vars, tightened 90 bounds.
Tried aggregator 2 times.
Detecting symmetries...
MIP Presolve eliminated 1691 rows and 1689 columns.
MIP Presolve modified 16320 coefficients.
Aggregator did 4 substitutions.
Reduced MIP has 45959 rows, 43039 columns, and 227565 nonzeros.
Reduced MIP has 35143 binaries, 206 generals, 0 SOSs, and 0 indicators.
Presolve time = 0.56 sec. (333.16 ticks)

        Nodes                                         Cuts/
   Node  Left     Objective  IInf  Best Integer    Best Bound    ItCnt     Gap

      0     1  -1.00000e+37     0                      0.0000        0         

Root node processing (before b&c):
  Real time             =    6.03 sec. (2208.71 ticks)
Sequential b&c:
  Real time             =    0.00 sec. (0.00 ticks)
                          ------------
Total (root+branch&cut) =    6.03 sec. (2208.71 ticks)


MIP - Time limit exceeded, no integer solution.
Current MIP best bound =  0.0000000000e+00 (gap is infinite)
Solution time =    6.03 sec.  Iterations = 0  Nodes = 0 (1)
Deterministic time = 2208.86 ticks  (366.25 ticks/sec)

CPLEX> CPLEX Error  1217: No solution exists.
No file written.
CPLEX> 
